p cnf 19 92
c max 8 9 10 11 16 17 18 19 0
c ind 1 2 3 4 5 6 7 12 13 14 15 0
c p weight 3 -1 0
c p weight -3 1 0
c p weight 6 -1 0
c p weight -6 1 0
c p weight 7 0.70710678118654752440084436210485 0
c p weight -7 1 0
c p weight 14 -1 0
c p weight -14 1 0
c p weight 15 0.70710678118654752440084436210485 0
c p weight -15 1 0
3 -1 0
-3 1 0
-6 -8 0
4 -8 -1 0
-4 -8 1 0
5 -8 -2 0
-5 -8 2 0
-7 -8 0
-6 -9 1 0
-6 -9 2 0
6 -9 -1 -2 0
4 -9 -2 0
-4 -9 2 0
5 -9 -1 0
-5 -9 1 0
-7 -9 0
-6 5 -10 0
-6 -10 1 0
-6 -10 -2 0
6 -5 -10 -1 2 0
-6 -11 1 0
-6 -11 2 0
-6 -5 -11 0
6 5 -11 -1 -2 0
4 -10 -1 0
4 -11 -1 0
-4 -10 1 0
-4 -11 1 0
5 -10 1 -2 0
5 -11 1 -2 0
-5 -10 1 2 0
-5 -11 1 2 0
7 -10 -1 0
7 -11 -1 0
-7 -10 1 0
-7 -11 1 0
8 9 10 11 0
-8 -9 0
-8 -10 0
-8 -11 0
-9 -10 0
-9 -11 0
-10 -11 0
-14 -16 0
12 -16 -4 0
-12 -16 4 0
13 -16 -5 0
-13 -16 5 0
-15 -16 0
-14 -17 4 0
-14 -17 5 0
14 -17 -4 -5 0
12 -17 -5 0
-12 -17 5 0
13 -17 -4 0
-13 -17 4 0
-15 -17 0
-14 13 -18 0
-14 -18 4 0
-14 -18 -5 0
14 -13 -18 -4 5 0
-14 -19 4 0
-14 -19 5 0
-14 -13 -19 0
14 13 -19 -4 -5 0
12 -18 -4 0
12 -19 -4 0
-12 -18 4 0
-12 -19 4 0
13 -18 4 -5 0
13 -19 4 -5 0
-13 -18 4 5 0
-13 -19 4 5 0
15 -18 -4 0
15 -19 -4 0
-15 -18 4 0
-15 -19 4 0
16 17 18 19 0
-16 -17 0
-16 -18 0
-16 -19 0
-17 -18 0
-17 -19 0
-18 -19 0
-17 -9 0
-19 -10 0
-18 -11 0
-8 16 0
12 -1 0
-12 1 0
13 -2 0
-13 2 0
